==> MAXTIME              = 3600
==> OUTPUTLOG            = 1
==> TREEGOMCUTS          = 0
FICO Xpress v8.5.9, solve started 23:54:01, Jun 8, 2019
Maximizing MILP Seating model
Original problem has:
       230 rows          300 cols         7440 elements       300 globals
Presolved problem has:
       103 rows          204 cols         2431 elements       198 globals
LP relaxation tightened
Will try to keep branch and bound tree memory usage below 7.2GB
 *** Heuristic solution found:    22.000000      Time: 0 ***
Starting concurrent solve with dual

 Concurrent-Solve,   0s
            Dual        
    objective   dual inf
 D  102.00000   .0000000
------- optimal --------
Concurrent statistics:
      Dual: 34 simplex iterations, 0.00s
Optimal solution found
 
   Its         Obj Value      S   Ninf  Nneg   Sum Dual Inf  Time
    34        102.000000      D      0     0        .000000     0
Dual solved problem
  34 simplex iterations in 0s

Final objective                         : 1.020000000000000e+02
  Max primal violation      (abs / rel) : 1.110e-16 / 9.869e-17
  Max dual violation        (abs / rel) :       0.0 /       0.0
  Max complementarity viol. (abs / rel) :       0.0 /       0.0
All values within tolerances

Starting root cutting & heuristics
 
 Its Type    BestSoln    BestBound   Sols    Add    Del     Gap     GInf   Time
   1  K     22.000000   102.000000      1     99      0   78.43%      29      0
   2  K     22.000000   102.000000      1    111     81   78.43%      43      0
   3  K     22.000000   102.000000      1     92    101   78.43%      48      0
b           28.000000   102.000000      2                 72.55%       0      0
   4  K     28.000000   102.000000      2     87     94   72.55%      35      0
   5  K     28.000000   102.000000      2    100     83   72.55%      49      0
   6  K     28.000000   102.000000      2     93     97   72.55%      47      0
   7  K     28.000000   102.000000      2     89     88   72.55%      58      0
b           35.000000   102.000000      3                 65.69%       0      0
   8  K     35.000000   102.000000      3     81     91   65.69%      37      0
   9  K     35.000000   102.000000      3     95     87   65.69%      48      0
  10  K     35.000000   102.000000      3     97     89   65.69%      58      0
  11  K     35.000000   102.000000      3     83     86   65.69%      67      0
  12  K     35.000000   102.000000      3     93     82   65.69%      72      0
  13  K     35.000000   102.000000      3     87     85   65.69%      76      0
  14  K     35.000000   102.000000      3      2     83   65.69%      39      0
  15  K     35.000000   102.000000      3      1      7   65.69%      39      0
  16  K     35.000000   102.000000      3      1     13   65.69%      39      0
  17  K     35.000000   102.000000      3     96      8   65.69%      58      0
  18  K     35.000000   102.000000      3      2     91   65.69%      39      0
b           47.000000   102.000000      4                 53.92%       0      1
  19  K     47.000000   102.000000      4     93     14   53.92%      52      1
  20  K     47.000000   102.000000      4     99    150   53.92%      59      1
  21  G     47.000000   102.000000      4     39     31   53.92%      41      1
  22  G     47.000000   102.000000      4     70    110   53.92%      55      1
Heuristic search started
Heuristic search stopped
 
Cuts in the matrix         : 39
Cut elements in the matrix : 1106
 
Starting tree search.
Deterministic mode with up to 4 running threads and up to 8 tasks.
 
    Node     BestSoln    BestBound   Sols Active  Depth     Gap     GInf   Time
       1    47.000000   102.000000      4      2      1   53.92%      45      1
       2    47.000000   102.000000      4      2      2   53.92%      57      1
       3    47.000000   102.000000      4      2      3   53.92%      45      1
       4    47.000000   102.000000      4      2      2   53.92%      35      1
       5    47.000000   102.000000      4      2      4   53.92%      44      1
       6    47.000000   102.000000      4      5      3   53.92%      48      1
       7    47.000000   102.000000      4      5      3   53.92%      47      1
       8    47.000000   102.000000      4      5      4   53.92%      52      1
       9    47.000000   102.000000      4      5      4   53.92%      36      1
      10    47.000000   102.000000      4      8      5   53.92%      38      1
      21    47.000000   102.000000      4     17      7   53.92%      36      1
      34    47.000000   102.000000      4     17     16   53.92%      44      1
      55    47.000000   102.000000      4     23     24   53.92%      17      1
      66    47.000000   102.000000      4     23     16   53.92%      28      1
      76    47.000000   102.000000      4     23     11   53.92%      50      1
      88    47.000000   102.000000      4     23     16   53.92%      39      1
     106    47.000000   102.000000      4     38     24   53.92%      24      1
     227    47.000000   102.000000      4     66     27   53.92%      15      1
     327    47.000000   102.000000      4     66     15   53.92%      41      1
B&B tree size: 1.3MB total
 
    Node     BestSoln    BestBound   Sols Active  Depth     Gap     GInf   Time
     433    47.000000   102.000000      4    154     23   53.92%      21      1
     537    47.000000   102.000000      4    154     24   53.92%       2      1
a    591    50.000000   102.000000      5    154     22   50.98%       0      1
     645    50.000000   102.000000      5    180     26   50.98%       7      1
     751    50.000000   102.000000      5    228     17   50.98%      45      2
     859    50.000000   102.000000      5    228     19   50.98%      30      2
     962    50.000000   102.000000      5    228      9   50.98%      65      2
a   1004    51.000000   102.000000      6    228     22   50.00%       0      2
    1065    51.000000   102.000000      6    228     17   50.00%      32      2
a   1096    53.000000   102.000000      7    228     13   48.04%       0      2
    1168    53.000000   102.000000      7    228     25   48.04%      10      2
    1280    53.000000   102.000000      7    304     18   48.04%      40      2
    1388    53.000000   102.000000      7    343     16   48.04%      33      2
    1489    53.000000   102.000000      7    380     22   48.04%      24      2
    1597    53.000000   102.000000      7    380     28   48.04%      14      2
    1699    53.000000   102.000000      7    447     17   48.04%      47      2
    1807    53.000000   102.000000      7    447     31   48.04%       7      2
    1915    53.000000   102.000000      7    447     17   48.04%      27      2
    2018    53.000000   102.000000      7    447     28   48.04%      14      2
    2130    53.000000   102.000000      7    447     16   48.04%      30      3
B&B tree size: 4.2MB total
 
    Node     BestSoln    BestBound   Sols Active  Depth     Gap     GInf   Time
    2234    53.000000   102.000000      7    447     20   48.04%      30      3
    2345    53.000000   102.000000      7    447     21   48.04%      27      3
    2447    53.000000   102.000000      7    509     21   48.04%       9      3
    2558    53.000000   102.000000      7    509     16   48.04%      47      3
    2677    53.000000   100.580879      7    715     28   47.31%      10      3
    2779    53.000000   100.580879      7    715     19   47.31%      37      3
    2900    53.000000   100.580879      7    715     22   47.31%      30      3
    3026    53.000000   100.580879      7    715     24   47.31%      30      3
a   3028    57.000000   100.580879      8    715     26   43.33%       0      3
    3148    57.000000   100.580879      8    715     28   43.33%      17      3
    3260    57.000000   100.580879      8    715     24   43.33%      32      3
    3410    57.000000   100.580879      8    706      1   43.33%       1      3
    3517    57.000000   100.580879      8    752     15   43.33%      27      4
a   3523    59.000000   100.580879      9    752     17   41.34%       0      4
    3640    59.000000   100.580879      9    786      1   41.34%       1      4
    3759    59.000000   100.580879      9    786     23   41.34%      39      4
    3859    59.000000   100.580879      9    786     24   41.34%      32      4
    3966    59.000000   100.580879      9    883     25   41.34%      11      4
    4068    59.000000   100.580879      9    937     22   41.34%      40      4
    4171    59.000000   100.580879      9    937     23   41.34%      29      4
B&B tree size: 6.5MB total
 
    Node     BestSoln    BestBound   Sols Active  Depth     Gap     GInf   Time
a   4215    60.000000   100.580879     10    937     25   40.35%       0      4
    4274    60.000000   100.580879     10    937     15   40.35%      26      4
    4378    60.000000   100.580879     10    937     14   40.35%      60      4
    4481    60.000000   100.580879     10    937     19   40.35%      35      4
    4589    60.000000   100.580879     10    937     21   40.35%      34      4
    4699    60.000000   100.580879     10    937     19   40.35%      24      4
    4812    60.000000   100.580879     10    937     16   40.35%      25      4
    4916    60.000000   100.580879     10    937     16   40.35%      47      4
    5020    60.000000   100.580879     10    958     20   40.35%      48      5
    5121    60.000000   100.580879     10    958     19   40.35%      26      5
    5223    60.000000   100.580879     10   1065     15   40.35%      30      5
    5329    60.000000   100.580879     10   1065     26   40.35%      25      5
    5443    60.000000   100.580879     10   1065     28   40.35%      23      5
    5546    60.000000   100.580879     10   1114     16   40.35%      42      5
    5651    60.000000   100.580879     10   1114     18   40.35%      20      5
    5774    60.000000   100.580879     10   1114     22   40.35%      28      5
    5887    60.000000   100.580879     10   1114     25   40.35%      29      5
    5989    60.000000   100.580879     10   1176      1   40.35%       1      5
    6095    60.000000   100.580879     10   1176     23   40.35%      35      5
    6198    60.000000   100.580879     10   1176     15   40.35%      41      5
B&B tree size: 9.1MB total
 
    Node     BestSoln    BestBound   Sols Active  Depth     Gap     GInf   Time
    6298    60.000000   100.580879     10   1176     16   40.35%      37      5
    6415    60.000000   100.580879     10   1181     18   40.35%      34      5
    6519    60.000000   100.038496     10   1332      1   40.02%       1      5
    6629    60.000000    97.580856     10   1495     16   38.51%      43      6
    6734    60.000000    97.580856     10   1495     18   38.51%      17      6
    6841    60.000000    97.580856     10   1528     16   38.51%      39      6
    6942    60.000000    97.580856     10   1678     16   38.51%      19      6
    7048    60.000000    97.580856     10   1678     16   38.51%      34      6
    7150    60.000000    97.580856     10   1678     18   38.51%      38      6
    7262    60.000000    97.580856     10   1690     14   38.51%      46      6
    7369    60.000000    97.580856     10   1781     19   38.51%      36      6
    7475    60.000000    97.580856     10   1781     22   38.51%       9      6
    7594    60.000000    97.580856     10   1781     26   38.51%      15      6
    7708    60.000000    97.580856     10   1799     17   38.51%      31      6
    7813    60.000000    97.580856     10   1799     16   38.51%      32      6
    7917    60.000000    97.580856     10   1799     17   38.51%      36      7
    8030    60.000000    97.580856     10   1799     22   38.51%      12      7
    8136    60.000000    97.580856     10   1799     19   38.51%      37      7
    8239    60.000000    97.580856     10   1799     23   38.51%      25      7
    8345    60.000000    97.580856     10   1841     16   38.51%      31      7
B&B tree size: 12MB total
 
    Node     BestSoln    BestBound   Sols Active  Depth     Gap     GInf   Time
    8456    60.000000    97.580856     10   1841     20   38.51%      30      7
    8570    60.000000    97.580856     10   1860     22   38.51%      22      7
    8671    60.000000    97.580856     10   1860     17   38.51%      31      7
    8771    60.000000    97.580856     10   1932     21   38.51%      34      7
    8878    60.000000    92.896320     10   2068     16   35.41%      44      7
    8989    60.000000    92.896320     10   2068     14   35.41%      58      7
    9098    60.000000    92.896320     10   2068     17   35.41%      27      8
    9203    60.000000    92.896320     10   2130     18   35.41%      52      8
    9309    60.000000    92.896320     10   2132     16   35.41%      28      8
    9414    60.000000    92.896320     10   2132     20   35.41%      38      8
    9523    60.000000    92.896320     10   2132     19   35.41%      42      8
    9644    60.000000    92.896320     10   2136     21   35.41%      28      8
    9752    60.000000    92.896320     10   2138     21   35.41%      40      8
    9858    60.000000    92.896320     10   2137     21   35.41%      41      8
    9964    60.000000    91.016190     10   2216     19   34.08%      28      8
   10071    60.000000    91.016190     10   2236     20   34.08%      41      8
   11083    60.000000    85.509045     10   2323     24   29.83%      48      9
   12083    60.000000    82.285642     10   2422     22   27.08%      21     10
   13092    60.000000    82.000000     10   2520     24   26.83%      29     10
   14098    60.000000    81.977158     10   2652     23   26.81%      29     11
B&B tree size: 17MB total
 
    Node     BestSoln    BestBound   Sols Active  Depth     Gap     GInf   Time
   15111    60.000000    80.035088     10   2731     23   25.03%      29     12
   16123    60.000000    79.681613     10   2789     26   24.70%      12     12
   17144    60.000000    78.949959     10   2820     20   24.00%      25     13
   18151    60.000000    78.828938     10   2868     22   23.89%      19     14
   19170    60.000000    78.000000     10   2894     24   23.08%      21     14
   20170    60.000000    77.940967     10   2981     22   23.02%      38     15
   21190    60.000000    76.806953     10   2966     22   21.88%      20     15
   22203    60.000000    76.711652     10   2925     18   21.79%      34     16
   23224    60.000000    75.764034     10   2891     26   20.81%      25     17
   24242    60.000000    75.113751     10   2876     25   20.12%      23     17
   25265    60.000000    75.000000     10   2858     22   20.00%      26     18
   26266    60.000000    74.666667     10   2829     24   19.64%      38     18
   27266    60.000000    74.018888     10   2765     17   18.94%      21     19
   28268    60.000000    74.000000     10   2746     28   18.92%      20     19
   29270    60.000000    73.000000     10   2716     24   17.81%      25     20
   30285    60.000000    72.094408     10   2583     21   16.78%      13     20
   31285    60.000000    72.000000     10   2442     15   16.67%      31     21
   32287    60.000000    71.000000     10   2296     16   15.49%      44     21
   33292    60.000000    70.000000     10   2128     22   14.29%      26     22
   34318    60.000000    69.258435     10   1894     29   13.37%      30     22
B&B tree size: 17MB total
 
    Node     BestSoln    BestBound   Sols Active  Depth     Gap     GInf   Time
   35318    60.000000    69.000000     10   1672     19   13.04%      41     23
   36321    60.000000    68.000000     10   1491     27   11.76%      28     23
   37322    60.000000    67.000000     10   1188     22   10.45%      29     24
   38322    60.000000    67.000000     10    793     18   10.45%      27     24
   39322    60.000000    62.000000     10    204     16    3.23%      16     24
 *** Search completed ***     Time:    25 Nodes:      39649
Number of integer feasible solutions found is 10
Best integer solution found is    60.000000
Best bound is    60.000000
Uncrunching matrix
